(set-info :smt-lib-version 2.6)
(set-logic QF_BV)
(set-info :source |
Benchmarks generated by the Calysto static checker.  Provided by Domagoj
Babic.  See http://www.cs.ubc.ca/~babic/index_benchmarks.htm.  Translated using
Spear Sf2Smt translator.

|)
(set-info :category "industrial")
(set-info :status sat)
(declare-fun v58719352 () (_ BitVec 32))
(declare-fun v17179632 () (_ BitVec 32))
(declare-fun v13192300 () (_ BitVec 32))
(declare-fun v50067900 () (_ BitVec 32))
(declare-fun v51766764 () (_ BitVec 32))
(declare-fun v16764240 () (_ BitVec 1))
(declare-fun vf62837392 () (_ BitVec 1))
(declare-fun v163079552 () (_ BitVec 64))
(declare-fun v55909524 () (_ BitVec 64))
(declare-fun v51684060 () (_ BitVec 32))
(declare-fun o47480300 () (_ BitVec 64))
(declare-fun o82263336 () (_ BitVec 64))
(declare-fun o58692360 () (_ BitVec 1))
(declare-fun o77480164 () (_ BitVec 1))
(declare-fun o52094236 () (_ BitVec 1))
(declare-fun v27961380 () (_ BitVec 32))
(declare-fun v56653352 () (_ BitVec 32))
(declare-fun o164466304 () (_ BitVec 32))
(declare-fun o89898988 () (_ BitVec 1))
(declare-fun o26183200 () (_ BitVec 1))
(declare-fun v51723108 () (_ BitVec 64))
(declare-fun v51856068 () (_ BitVec 64))
(declare-fun o67093896 () (_ BitVec 64))
(declare-fun o37616528 () (_ BitVec 1))
(declare-fun o27770544 () (_ BitVec 1))
(declare-fun o71187200 () (_ BitVec 64))
(declare-fun o82109936 () (_ BitVec 64))
(declare-fun o31525904 () (_ BitVec 32))
(declare-fun o68632244 () (_ BitVec 64))
(declare-fun o79243096 () (_ BitVec 1))
(declare-fun o162305084 () (_ BitVec 1))
(declare-fun o52287784 () (_ BitVec 64))
(declare-fun o84252788 () (_ BitVec 64))
(declare-fun o55307492 () (_ BitVec 1))
(declare-fun o46514220 () (_ BitVec 1))
(declare-fun o47167904 () (_ BitVec 1))
(declare-fun o46844296 () (_ BitVec 1))
(declare-fun o46455272 () (_ BitVec 1))
(declare-fun o58256432 () (_ BitVec 1))
(declare-fun v163859472 () (_ BitVec 32))
(declare-fun o80220868 () (_ BitVec 1))
(declare-fun o34301000 () (_ BitVec 1))
(declare-fun o48032140 () (_ BitVec 1))
(declare-fun Fresh__0 () (_ BitVec 1))
(declare-fun Fresh__1 () (_ BitVec 1))
(declare-fun Fresh__2 () (_ BitVec 1))
(declare-fun Fresh__3 () (_ BitVec 1))
(declare-fun Fresh__4 () (_ BitVec 1))
(declare-fun Fresh__5 () (_ BitVec 1))
(declare-fun Fresh__6 () (_ BitVec 1))
(declare-fun Fresh__7 () (_ BitVec 1))
(declare-fun Fresh__8 () (_ BitVec 1))
(declare-fun Fresh__9 () (_ BitVec 1))
(declare-fun Fresh__10 () (_ BitVec 1))
(assert (= o47480300 ((_ sign_extend 32) v51684060)))
(assert (= o82263336 (bvadd v55909524 o47480300)))
(assert (= (= Fresh__0 (_ bv1 1)) (bvsle v163079552 o82263336)))
(assert (= o58692360 Fresh__0))
(assert (= o77480164 (bvand o58692360 ((_ extract 0 0) (_ bv1 64)))))
(assert (= o52094236 (bvand vf62837392 o77480164)))
(assert (= o164466304 (bvadd ((_ extract 31 0) (_ bv1 64)) v56653352)))
(assert (= (= Fresh__1 (_ bv1 1)) (bvsle v27961380 o164466304)))
(assert (= o89898988 Fresh__1))
(assert (= o26183200 (bvand o52094236 o89898988)))
(assert (= o67093896 (bvsub v51723108 v51856068)))
(assert (= (= Fresh__2 (_ bv1 1)) (bvsle ((_ extract 63 0) (_ bv0 64)) o67093896)))
(assert (= o37616528 Fresh__2))
(assert (= o27770544 (bvand ((_ extract 0 0) (_ bv1 64)) o37616528)))
(assert (= o71187200 ((_ sign_extend 32) v27961380)))
(assert (= o82109936 (bvmul o71187200 v163079552)))
(assert (= o31525904 ((_ extract 31 0) o82109936)))
(assert (= o68632244 ((_ sign_extend 32) o31525904)))
(assert (= (= Fresh__3 (_ bv1 1)) (bvsle ((_ extract 63 0) (_ bv0 64)) o68632244)))
(assert (= o79243096 Fresh__3))
(assert (= o162305084 (bvand o27770544 o79243096)))
(assert (= o52287784 (bvmul ((_ extract 63 0) (_ bv1000 64)) o68632244)))
(assert (= o84252788 (bvsdiv o52287784 o67093896)))
(assert (= (= Fresh__4 (_ bv1 1)) (bvsle ((_ extract 63 0) (_ bv1024 64)) o84252788)))
(assert (= o55307492 Fresh__4))
(assert (= o46514220 (bvand o162305084 o55307492)))
(assert (= (= Fresh__5 (_ bv1 1)) (bvsle ((_ extract 63 0) (_ bv1048576 64)) o84252788)))
(assert (= o47167904 Fresh__5))
(assert (= o46844296 (bvand o46514220 o47167904)))
(assert (= (= Fresh__6 (_ bv1 1)) (bvslt o84252788 ((_ extract 63 0) (_ bv1073741824 64)))))
(assert (= o46455272 Fresh__6))
(assert (= o58256432 (bvand o46844296 o46455272)))
(assert (= (= Fresh__7 (_ bv1 1)) (distinct ((_ extract 31 0) (_ bv0 64)) v163859472)))
(assert (= o80220868 Fresh__7))
(assert (= (= Fresh__8 (_ bv1 1)) (=> (= o58256432 (_ bv1 1)) (= o80220868 (_ bv1 1)))))
(assert (= o34301000 Fresh__8))
(assert (= (= Fresh__9 (_ bv1 1)) (=> (= o26183200 (_ bv1 1)) (= o34301000 (_ bv1 1)))))
(assert (= o48032140 Fresh__9))
(assert (= (= Fresh__10 (_ bv1 1)) (= ((_ extract 0 0) (_ bv0 64)) o48032140)))
(assert (= (_ bv1 1) Fresh__10))
(check-sat)
(exit)
